50
5525

406 68
122 113
212 405
705 554
680 31
863 874
429 433
855 655
138 262
317 53
129 55
833 963
890 840
197 601
15 488
169 883
730 207
421 748
645 443
83 72
802 870
775 828
561 773
788 765
261 552
273 990
652 787
113 635
284 267
155 572
167 825
690 396
231 176
423 419
275 367
373 452
49 211
139 137
47 851
256 299
914 269
179 917
109 286
382 805
306 945
233 631
716 205
815 538
10 109
442 400
